(set-info :source |printed by MathSAT|)
(declare-fun |!{$(in_main#0)<N>}| () Int)
(declare-fun |!{$(in_main#0)<N>}.next| () Int)
(declare-fun |!{$(in_main#0)<&array1>}| () Int)
(declare-fun |!{$(in_main#0)<&array1>}.next| () Int)
(declare-fun |!{$(in_main#0)<&array2>}| () Int)
(declare-fun |!{$(in_main#0)<&array2>}.next| () Int)
(declare-fun |!{$(in_main#0)<k>}| () Int)
(declare-fun |!{$(in_main#0)<k>}.next| () Int)
(declare-fun |!{$(in_main#0)<k#1>}| () Int)
(declare-fun |!{$(in_main#0)<k#1>}.next| () Int)
(declare-fun |!{%memaddr}| () Int)
(declare-fun |!{%memaddr}.next| () Int)
(declare-fun |!{%mem.0}| () (Array Int Int))
(declare-fun |!{%mem.0}.next| () (Array Int Int))
(declare-fun |!{$(in_main#0)<$(in___VERIFIER_nondet_int#2)<h#<__VERIFIER_nondet_int.return>>>}| () Int)
(declare-fun |!{$(in_main#0)<$(in___VERIFIER_nondet_int#4)<h#<__VERIFIER_nondet_int.return>>>}| () Int)
(declare-fun |!{$(in_main#0)<$(in___VERIFIER_nondet_int#5)<h#<__VERIFIER_nondet_int.return>>>}| () Int)
(declare-fun |!{$(in_main#0)<$(in_rec_array_compare#6)<$temp.1>>}| () Int)
(declare-fun |!{$(in_main#0)<$(in_rec_array_compare#6)<$tmp>>}| () Int)
(declare-fun |!{$(in_main#0)<$(in_rec_array_compare#6)<$(in_rec_array_compare#0)<$temp.1>>>}| () Int)
(declare-fun |!{$(in_main#0)<$(in_rec_array_compare#6)<$(in_rec_array_compare#0)<$tmp>>>}| () Int)
(declare-fun !pc () Int)
(declare-fun !pc.next () Int)
(declare-fun |%{$(in_main#0)<k#1>}#1| () Int)
(declare-fun rec_array_compare<0> (Int Int Int Int Int) Int)
(declare-fun |%{$(in_main#0)<$(in_rec_array_compare#6)<$(in_rec_array_compare#0)<rec_array_compare.return>>>}#3| () Int)
(declare-fun |%{$(in_main#0)<$(in_rec_array_compare#6)<$(in_rec_array_compare#0)<$temp.1>>>}#3| () Int)
(declare-fun |%{$(in_main#0)<$(in_rec_array_compare#6)<$(in_rec_array_compare#0)<$tmp>>>}#3| () Int)
(declare-fun |%{$(in_main#0)<$(in_rec_array_compare#6)<$temp.1>>}#3| () Int)
(declare-fun |%{$(in_main#0)<$(in_rec_array_compare#6)<$tmp>>}#3| () Int)
(declare-fun |%{$(in_main#0)<$(in_rec_array_compare#6)<rec_array_compare.return>>}#3| () Int)
(define-fun .def_68 () Int (! !pc :next !pc.next))
(define-fun .def_71 () Bool (! (= .def_68 2) :init true))
(define-fun .def_316 () Bool (= .def_68 60))
(define-fun .def_160 () Bool (= !pc.next 0))
(define-fun .def_322 () Bool (and .def_160 .def_316))
(define-fun .def_288 () Bool (= |%{$(in_main#0)<$(in_rec_array_compare#6)<rec_array_compare.return>>}#3| 1))
(define-fun .def_294 () Bool (not .def_288))
(define-fun .def_10 () Int (! |!{$(in_main#0)<&array1>}| :next |!{$(in_main#0)<&array1>}.next|))
(define-fun .def_122 () Bool (= .def_10 |!{$(in_main#0)<&array1>}.next|))
(define-fun .def_8 () Int (! |!{$(in_main#0)<N>}| :next |!{$(in_main#0)<N>}.next|))
(define-fun .def_120 () Bool (= .def_8 |!{$(in_main#0)<N>}.next|))
(define-fun .def_134 () Bool (and .def_120 .def_122))
(define-fun .def_12 () Int (! |!{$(in_main#0)<&array2>}| :next |!{$(in_main#0)<&array2>}.next|))
(define-fun .def_124 () Bool (= .def_12 |!{$(in_main#0)<&array2>}.next|))
(define-fun .def_135 () Bool (and .def_124 .def_134))
(define-fun .def_14 () Int (! |!{$(in_main#0)<k>}| :next |!{$(in_main#0)<k>}.next|))
(define-fun .def_126 () Bool (= .def_14 |!{$(in_main#0)<k>}.next|))
(define-fun .def_136 () Bool (and .def_126 .def_135))
(define-fun .def_16 () Int (! |!{$(in_main#0)<k#1>}| :next |!{$(in_main#0)<k#1>}.next|))
(define-fun .def_128 () Bool (= .def_16 |!{$(in_main#0)<k#1>}.next|))
(define-fun .def_146 () Bool (and .def_128 .def_136))
(define-fun .def_18 () Int (! |!{%memaddr}| :next |!{%memaddr}.next|))
(define-fun .def_130 () Bool (= .def_18 |!{%memaddr}.next|))
(define-fun .def_147 () Bool (and .def_130 .def_146))
(define-fun .def_20 () (Array Int Int) (! |!{%mem.0}| :next |!{%mem.0}.next|))
(define-fun .def_100 () Bool (= .def_20 |!{%mem.0}.next|))
(define-fun .def_148 () Bool (and .def_100 .def_147))
(define-fun .def_313 () Bool (and .def_148 .def_294))
(define-fun .def_176 () Bool (<= 0 .def_8))
(define-fun .def_174 () Bool (<= .def_8 0))
(define-fun .def_175 () Bool (not .def_174))
(define-fun .def_177 () Bool (and .def_175 .def_176))
(define-fun .def_284 () Bool (not .def_177))
(define-fun .def_266 () Bool (= |!{$(in_main#0)<$(in_rec_array_compare#6)<$temp.1>>}| |%{$(in_main#0)<$(in_rec_array_compare#6)<$temp.1>>}#3|))
(define-fun .def_286 () Bool (and .def_266 .def_284))
(define-fun .def_272 () Bool (= |!{$(in_main#0)<$(in_rec_array_compare#6)<$tmp>>}| |%{$(in_main#0)<$(in_rec_array_compare#6)<$tmp>>}#3|))
(define-fun .def_287 () Bool (and .def_272 .def_286))
(define-fun .def_289 () Bool (and .def_287 .def_288))
(define-fun .def_278 () Bool (= |%{$(in_main#0)<$(in_rec_array_compare#6)<$(in_rec_array_compare#0)<rec_array_compare.return>>>}#3| |%{$(in_main#0)<$(in_rec_array_compare#6)<rec_array_compare.return>>}#3|))
(define-fun .def_273 () Bool (= |%{$(in_main#0)<$(in_rec_array_compare#6)<$(in_rec_array_compare#0)<rec_array_compare.return>>>}#3| |%{$(in_main#0)<$(in_rec_array_compare#6)<$tmp>>}#3|))
(define-fun .def_267 () Bool (= |%{$(in_main#0)<$(in_rec_array_compare#6)<$(in_rec_array_compare#0)<rec_array_compare.return>>>}#3| |%{$(in_main#0)<$(in_rec_array_compare#6)<$temp.1>>}#3|))
(define-fun .def_254 () Bool (= |%{$(in_main#0)<$(in_rec_array_compare#6)<$(in_rec_array_compare#0)<rec_array_compare.return>>>}#3| 1))
(define-fun .def_197 () Bool (<= 2 .def_8))
(define-fun .def_195 () Bool (<= .def_8 1))
(define-fun .def_196 () Bool (not .def_195))
(define-fun .def_198 () Bool (and .def_196 .def_197))
(define-fun .def_250 () Bool (not .def_198))
(define-fun .def_255 () Bool (and .def_250 .def_254))
(define-fun .def_235 () Bool (= |!{$(in_main#0)<$(in_rec_array_compare#6)<$(in_rec_array_compare#0)<$temp.1>>>}| |%{$(in_main#0)<$(in_rec_array_compare#6)<$(in_rec_array_compare#0)<$temp.1>>>}#3|))
(define-fun .def_256 () Bool (and .def_235 .def_255))
(define-fun .def_241 () Bool (= |!{$(in_main#0)<$(in_rec_array_compare#6)<$(in_rec_array_compare#0)<$tmp>>>}| |%{$(in_main#0)<$(in_rec_array_compare#6)<$(in_rec_array_compare#0)<$tmp>>>}#3|))
(define-fun .def_257 () Bool (and .def_241 .def_256))
(define-fun .def_217 () Int (+ .def_8 (- 2)))
(define-fun .def_218 () Int (rec_array_compare<0> .def_10 .def_12 2 .def_217 .def_8))
(define-fun .def_242 () Bool (= .def_218 |%{$(in_main#0)<$(in_rec_array_compare#6)<$(in_rec_array_compare#0)<$tmp>>>}#3|))
(define-fun .def_236 () Bool (= .def_218 |%{$(in_main#0)<$(in_rec_array_compare#6)<$(in_rec_array_compare#0)<$temp.1>>>}#3|))
(define-fun .def_230 () Bool (= .def_218 |%{$(in_main#0)<$(in_rec_array_compare#6)<$(in_rec_array_compare#0)<rec_array_compare.return>>>}#3|))
(define-fun .def_188 () Int (+ .def_8 .def_12))
(define-fun .def_211 () Int (+ .def_188 (- 2)))
(define-fun .def_212 () Int (select .def_20 .def_211))
(define-fun .def_184 () Int (+ .def_8 .def_10))
(define-fun .def_208 () Int (+ .def_184 (- 2)))
(define-fun .def_209 () Int (select .def_20 .def_208))
(define-fun .def_213 () Bool (= .def_209 .def_212))
(define-fun .def_214 () Bool (not .def_213))
(define-fun .def_201 () Int (+ .def_12 1))
(define-fun .def_202 () Int (select .def_20 .def_201))
(define-fun .def_199 () Int (+ .def_10 1))
(define-fun .def_200 () Int (select .def_20 .def_199))
(define-fun .def_203 () Bool (= .def_200 .def_202))
(define-fun .def_204 () Bool (not .def_203))
(define-fun .def_215 () Bool (or .def_204 .def_214))
(define-fun .def_216 () Bool (not .def_215))
(define-fun .def_232 () Bool (and .def_216 .def_230))
(define-fun .def_238 () Bool (and .def_232 .def_236))
(define-fun .def_244 () Bool (and .def_238 .def_242))
(define-fun .def_229 () Bool (= |%{$(in_main#0)<$(in_rec_array_compare#6)<$(in_rec_array_compare#0)<rec_array_compare.return>>>}#3| 0))
(define-fun .def_231 () Bool (and .def_215 .def_229))
(define-fun .def_237 () Bool (and .def_231 .def_235))
(define-fun .def_243 () Bool (and .def_237 .def_241))
(define-fun .def_245 () Bool (or .def_243 .def_244))
(define-fun .def_246 () Bool (and .def_198 .def_245))
(define-fun .def_258 () Bool (or .def_246 .def_257))
(define-fun .def_189 () Int (+ .def_188 (- 1)))
(define-fun .def_190 () Int (select .def_20 .def_189))
(define-fun .def_185 () Int (+ .def_184 (- 1)))
(define-fun .def_186 () Int (select .def_20 .def_185))
(define-fun .def_191 () Bool (= .def_186 .def_190))
(define-fun .def_192 () Bool (not .def_191))
(define-fun .def_179 () Int (select .def_20 .def_12))
(define-fun .def_178 () Int (select .def_20 .def_10))
(define-fun .def_180 () Bool (= .def_178 .def_179))
(define-fun .def_181 () Bool (not .def_180))
(define-fun .def_193 () Bool (or .def_181 .def_192))
(define-fun .def_194 () Bool (not .def_193))
(define-fun .def_259 () Bool (and .def_194 .def_258))
(define-fun .def_269 () Bool (and .def_259 .def_267))
(define-fun .def_275 () Bool (and .def_269 .def_273))
(define-fun .def_280 () Bool (and .def_275 .def_278))
(define-fun .def_277 () Bool (= |%{$(in_main#0)<$(in_rec_array_compare#6)<rec_array_compare.return>>}#3| 0))
(define-fun .def_268 () Bool (and .def_193 .def_266))
(define-fun .def_274 () Bool (and .def_268 .def_272))
(define-fun .def_279 () Bool (and .def_274 .def_277))
(define-fun .def_281 () Bool (or .def_279 .def_280))
(define-fun .def_282 () Bool (and .def_177 .def_281))
(define-fun .def_290 () Bool (or .def_282 .def_289))
(define-fun .def_314 () Bool (and .def_290 .def_313))
(define-fun .def_167 () Bool (<= .def_8 .def_14))
(define-fun .def_315 () Bool (and .def_167 .def_314))
(define-fun .def_323 () Bool (and .def_315 .def_322))
(define-fun .def_156 () Bool (= !pc.next 178))
(define-fun .def_319 () Bool (and .def_156 .def_316))
(define-fun .def_306 () Bool (= |!{$(in_main#0)<k#1>}.next| 0))
(define-fun .def_307 () Bool (and .def_136 .def_306))
(define-fun .def_308 () Bool (and .def_130 .def_307))
(define-fun .def_309 () Bool (and .def_100 .def_308))
(define-fun .def_310 () Bool (and .def_288 .def_309))
(define-fun .def_311 () Bool (and .def_290 .def_310))
(define-fun .def_312 () Bool (and .def_167 .def_311))
(define-fun .def_320 () Bool (and .def_312 .def_319))
(define-fun .def_104 () Bool (= !pc.next 60))
(define-fun .def_317 () Bool (and .def_104 .def_316))
(define-fun .def_171 () Int (+ .def_12 .def_14))
(define-fun .def_169 () Int (+ .def_10 .def_14))
(define-fun .def_170 () (Array Int Int) (store .def_20 .def_169 |!{$(in_main#0)<$(in___VERIFIER_nondet_int#4)<h#<__VERIFIER_nondet_int.return>>>}|))
(define-fun .def_172 () (Array Int Int) (store .def_170 .def_171 |!{$(in_main#0)<$(in___VERIFIER_nondet_int#5)<h#<__VERIFIER_nondet_int.return>>>}|))
(define-fun .def_303 () Bool (= |!{%mem.0}.next| .def_172))
(define-fun .def_297 () Int (* (- 1) |!{$(in_main#0)<k>}.next|))
(define-fun .def_298 () Int (+ .def_14 .def_297))
(define-fun .def_299 () Bool (= .def_298 (- 1)))
(define-fun .def_300 () Bool (and .def_135 .def_299))
(define-fun .def_301 () Bool (and .def_128 .def_300))
(define-fun .def_302 () Bool (and .def_130 .def_301))
(define-fun .def_304 () Bool (and .def_302 .def_303))
(define-fun .def_168 () Bool (not .def_167))
(define-fun .def_305 () Bool (and .def_168 .def_304))
(define-fun .def_318 () Bool (and .def_305 .def_317))
(define-fun .def_321 () Bool (or .def_318 .def_320))
(define-fun .def_324 () Bool (or .def_321 .def_323))
(define-fun .def_151 () Bool (= .def_68 178))
(define-fun .def_161 () Bool (and .def_151 .def_160))
(define-fun .def_107 () Bool (<= .def_8 .def_16))
(define-fun .def_149 () Bool (and .def_107 .def_148))
(define-fun .def_162 () Bool (and .def_149 .def_161))
(define-fun .def_157 () Bool (and .def_151 .def_156))
(define-fun .def_138 () Int (* (- 1) |!{$(in_main#0)<k#1>}.next|))
(define-fun .def_139 () Int (+ .def_16 .def_138))
(define-fun .def_140 () Bool (= .def_139 (- 1)))
(define-fun .def_141 () Bool (and .def_136 .def_140))
(define-fun .def_142 () Bool (and .def_130 .def_141))
(define-fun .def_143 () Bool (and .def_100 .def_142))
(define-fun .def_111 () Int (+ .def_12 .def_16))
(define-fun .def_112 () Int (select .def_20 .def_111))
(define-fun .def_109 () Int (+ .def_10 .def_16))
(define-fun .def_110 () Int (select .def_20 .def_109))
(define-fun .def_113 () Bool (= .def_110 .def_112))
(define-fun .def_114 () Int (ite .def_113 1 0))
(define-fun .def_115 () Bool (= .def_114 0))
(define-fun .def_116 () Bool (not .def_115))
(define-fun .def_144 () Bool (and .def_116 .def_143))
(define-fun .def_108 () Bool (not .def_107))
(define-fun .def_145 () Bool (and .def_108 .def_144))
(define-fun .def_158 () Bool (and .def_145 .def_157))
(define-fun .def_153 () Bool (= !pc.next 198))
(define-fun .def_154 () Bool (and .def_151 .def_153))
(define-fun .def_121 () Bool (and .def_115 .def_120))
(define-fun .def_123 () Bool (and .def_121 .def_122))
(define-fun .def_125 () Bool (and .def_123 .def_124))
(define-fun .def_127 () Bool (and .def_125 .def_126))
(define-fun .def_129 () Bool (and .def_127 .def_128))
(define-fun .def_131 () Bool (and .def_129 .def_130))
(define-fun .def_132 () Bool (and .def_100 .def_131))
(define-fun .def_133 () Bool (and .def_108 .def_132))
(define-fun .def_155 () Bool (and .def_133 .def_154))
(define-fun .def_159 () Bool (or .def_155 .def_158))
(define-fun .def_163 () Bool (or .def_159 .def_162))
(define-fun .def_105 () Bool (and .def_71 .def_104))
(define-fun .def_98 () Bool (= |!{%memaddr}.next| 3))
(define-fun .def_96 () Bool (= |!{$(in_main#0)<k#1>}.next| |%{$(in_main#0)<k#1>}#1|))
(define-fun .def_94 () Bool (= |!{$(in_main#0)<k>}.next| 0))
(define-fun .def_92 () Bool (= |!{$(in_main#0)<&array2>}.next| 2))
(define-fun .def_90 () Bool (= |!{$(in_main#0)<&array1>}.next| 1))
(define-fun .def_89 () Bool (= |!{$(in_main#0)<N>}.next| |!{$(in_main#0)<$(in___VERIFIER_nondet_int#2)<h#<__VERIFIER_nondet_int.return>>>}|))
(define-fun .def_91 () Bool (and .def_89 .def_90))
(define-fun .def_93 () Bool (and .def_91 .def_92))
(define-fun .def_95 () Bool (and .def_93 .def_94))
(define-fun .def_97 () Bool (and .def_95 .def_96))
(define-fun .def_99 () Bool (and .def_97 .def_98))
(define-fun .def_101 () Bool (and .def_99 .def_100))
(define-fun .def_84 () Bool (<= |!{$(in_main#0)<$(in___VERIFIER_nondet_int#2)<h#<__VERIFIER_nondet_int.return>>>}| 0))
(define-fun .def_85 () Bool (not .def_84))
(define-fun .def_86 () Int (ite .def_85 1 0))
(define-fun .def_87 () Bool (= .def_86 0))
(define-fun .def_88 () Bool (not .def_87))
(define-fun .def_102 () Bool (and .def_88 .def_101))
(define-fun .def_106 () Bool (and .def_102 .def_105))
(define-fun .def_164 () Bool (or .def_106 .def_163))
(define-fun .def_325 () Bool (! (or .def_164 .def_324) :trans true))
(define-fun .def_165 () Bool (= .def_68 198))
(define-fun .def_326 () Bool (! (not .def_165) :invar-property 0 :invar-property-name ||))
(assert true)
